; Options: -q --produce-models --incremental --print-success --lang smt2.6 --arrays-exp
(set-logic ALL)

(declare-fun start!3173 () Bool)

(assert start!3173)

(declare-fun b_free!81 () Bool)

(declare-fun b_next!81 () Bool)

(assert (=> start!3173 (= b_free!81 (not b_next!81))))

(declare-fun tp!122 () Bool)

(declare-fun b_and!787 () Bool)

(assert (=> start!3173 (= tp!122 b_and!787)))

(declare-fun b!18368 () Bool)

(declare-fun res!14814 () Bool)

(declare-fun e!9543 () Bool)

(assert (=> b!18368 (=> (not res!14814) (not e!9543))))

(declare-fun P!5 () Int)

(declare-datatypes ((array!1434 0))(
  ( (array!1435 (arr!629 (Array (_ BitVec 32) (_ FloatingPoint 11 53))) (size!629 (_ BitVec 32))) )
))
(declare-fun a!12 () array!1434)

(declare-fun dynLambda!83 (Int (_ FloatingPoint 11 53)) Bool)

(assert (=> b!18368 (= res!14814 (dynLambda!83 P!5 (select (arr!629 a!12) #b00000000000000000000000000001111)))))

(declare-fun b!18369 () Bool)

(declare-fun res!14799 () Bool)

(assert (=> b!18369 (=> (not res!14799) (not e!9543))))

(assert (=> b!18369 (= res!14799 (dynLambda!83 P!5 (select (arr!629 a!12) #b00000000000000000000000000000011)))))

(declare-fun b!18370 () Bool)

(assert (=> b!18370 (= e!9543 (bvsge #b00000000000000000000000000010010 (size!629 a!12)))))

(declare-fun b!18371 () Bool)

(declare-fun res!14807 () Bool)

(assert (=> b!18371 (=> (not res!14807) (not e!9543))))

(assert (=> b!18371 (= res!14807 (dynLambda!83 P!5 (select (arr!629 a!12) #b00000000000000000000000000000110)))))

(declare-fun b!18372 () Bool)

(declare-fun res!14803 () Bool)

(assert (=> b!18372 (=> (not res!14803) (not e!9543))))

(assert (=> b!18372 (= res!14803 (dynLambda!83 P!5 (select (arr!629 a!12) #b00000000000000000000000000001010)))))

(declare-fun b!18373 () Bool)

(declare-fun res!14809 () Bool)

(assert (=> b!18373 (=> (not res!14809) (not e!9543))))

(assert (=> b!18373 (= res!14809 (dynLambda!83 P!5 (select (arr!629 a!12) #b00000000000000000000000000000010)))))

(declare-fun b!18375 () Bool)

(declare-fun res!14798 () Bool)

(assert (=> b!18375 (=> (not res!14798) (not e!9543))))

(assert (=> b!18375 (= res!14798 (dynLambda!83 P!5 (select (arr!629 a!12) #b00000000000000000000000000000100)))))

(declare-fun b!18376 () Bool)

(declare-fun res!14804 () Bool)

(assert (=> b!18376 (=> (not res!14804) (not e!9543))))

(assert (=> b!18376 (= res!14804 (dynLambda!83 P!5 (select (arr!629 a!12) #b00000000000000000000000000000111)))))

(declare-fun b!18377 () Bool)

(declare-fun res!14796 () Bool)

(assert (=> b!18377 (=> (not res!14796) (not e!9543))))

(assert (=> b!18377 (= res!14796 (dynLambda!83 P!5 (select (arr!629 a!12) #b00000000000000000000000000000001)))))

(declare-fun b!18378 () Bool)

(declare-fun res!14813 () Bool)

(assert (=> b!18378 (=> (not res!14813) (not e!9543))))

(assert (=> b!18378 (= res!14813 (dynLambda!83 P!5 (select (arr!629 a!12) #b00000000000000000000000000001000)))))

(declare-fun b!18379 () Bool)

(declare-fun res!14802 () Bool)

(assert (=> b!18379 (=> (not res!14802) (not e!9543))))

(assert (=> b!18379 (= res!14802 (dynLambda!83 P!5 (select (arr!629 a!12) #b00000000000000000000000000010000)))))

(declare-fun res!14797 () Bool)

(assert (=> start!3173 (=> (not res!14797) (not e!9543))))

(assert (=> start!3173 (= res!14797 (= (size!629 a!12) #b00000000000000000000000000010100))))

(assert (=> start!3173 e!9543))

(declare-fun array_inv!577 (array!1434) Bool)

(assert (=> start!3173 (array_inv!577 a!12)))

(assert (=> start!3173 tp!122))

(declare-fun b!18374 () Bool)

(declare-fun res!14800 () Bool)

(assert (=> b!18374 (=> (not res!14800) (not e!9543))))

(assert (=> b!18374 (= res!14800 (dynLambda!83 P!5 (select (arr!629 a!12) #b00000000000000000000000000001110)))))

(declare-fun b!18380 () Bool)

(declare-fun res!14808 () Bool)

(assert (=> b!18380 (=> (not res!14808) (not e!9543))))

(assert (=> b!18380 (= res!14808 (dynLambda!83 P!5 (select (arr!629 a!12) #b00000000000000000000000000001101)))))

(declare-fun b!18381 () Bool)

(declare-fun res!14812 () Bool)

(assert (=> b!18381 (=> (not res!14812) (not e!9543))))

(assert (=> b!18381 (= res!14812 (dynLambda!83 P!5 (select (arr!629 a!12) #b00000000000000000000000000000101)))))

(declare-fun b!18382 () Bool)

(declare-fun res!14806 () Bool)

(assert (=> b!18382 (=> (not res!14806) (not e!9543))))

(assert (=> b!18382 (= res!14806 (dynLambda!83 P!5 (select (arr!629 a!12) #b00000000000000000000000000001011)))))

(declare-fun b!18383 () Bool)

(declare-fun res!14811 () Bool)

(assert (=> b!18383 (=> (not res!14811) (not e!9543))))

(assert (=> b!18383 (= res!14811 (dynLambda!83 P!5 (select (arr!629 a!12) #b00000000000000000000000000001001)))))

(declare-fun b!18384 () Bool)

(declare-fun res!14805 () Bool)

(assert (=> b!18384 (=> (not res!14805) (not e!9543))))

(assert (=> b!18384 (= res!14805 (dynLambda!83 P!5 (select (arr!629 a!12) #b00000000000000000000000000010001)))))

(declare-fun b!18385 () Bool)

(declare-fun res!14810 () Bool)

(assert (=> b!18385 (=> (not res!14810) (not e!9543))))

(assert (=> b!18385 (= res!14810 (dynLambda!83 P!5 (select (arr!629 a!12) #b00000000000000000000000000000000)))))

(declare-fun b!18386 () Bool)

(declare-fun res!14801 () Bool)

(assert (=> b!18386 (=> (not res!14801) (not e!9543))))

(assert (=> b!18386 (= res!14801 (dynLambda!83 P!5 (select (arr!629 a!12) #b00000000000000000000000000001100)))))

(assert (= (and start!3173 res!14797) b!18385))

(assert (= (and b!18385 res!14810) b!18377))

(assert (= (and b!18377 res!14796) b!18373))

(assert (= (and b!18373 res!14809) b!18369))

(assert (= (and b!18369 res!14799) b!18375))

(assert (= (and b!18375 res!14798) b!18381))

(assert (= (and b!18381 res!14812) b!18371))

(assert (= (and b!18371 res!14807) b!18376))

(assert (= (and b!18376 res!14804) b!18378))

(assert (= (and b!18378 res!14813) b!18383))

(assert (= (and b!18383 res!14811) b!18372))

(assert (= (and b!18372 res!14803) b!18382))

(assert (= (and b!18382 res!14806) b!18386))

(assert (= (and b!18386 res!14801) b!18380))

(assert (= (and b!18380 res!14808) b!18374))

(assert (= (and b!18374 res!14800) b!18368))

(assert (= (and b!18368 res!14814) b!18379))

(assert (= (and b!18379 res!14802) b!18384))

(assert (= (and b!18384 res!14805) b!18370))

(declare-fun b_lambda!8647 () Bool)

(assert (=> (not b_lambda!8647) (not b!18376)))

(declare-fun t!897 () Bool)

(declare-fun tb!707 () Bool)

(assert (=> (and start!3173 (= P!5 P!5) t!897) tb!707))

(declare-fun result!707 () Bool)

(assert (=> tb!707 (= result!707 true)))

(assert (=> b!18376 t!897))

(declare-fun b_and!789 () Bool)

(assert (= b_and!787 (and (=> t!897 result!707) b_and!789)))

(declare-fun b_lambda!8649 () Bool)

(assert (=> (not b_lambda!8649) (not b!18383)))

(declare-fun t!899 () Bool)

(declare-fun tb!709 () Bool)

(assert (=> (and start!3173 (= P!5 P!5) t!899) tb!709))

(declare-fun result!709 () Bool)

(assert (=> tb!709 (= result!709 true)))

(assert (=> b!18383 t!899))

(declare-fun b_and!791 () Bool)

(assert (= b_and!789 (and (=> t!899 result!709) b_and!791)))

(declare-fun b_lambda!8651 () Bool)

(assert (=> (not b_lambda!8651) (not b!18379)))

(declare-fun t!901 () Bool)

(declare-fun tb!711 () Bool)

(assert (=> (and start!3173 (= P!5 P!5) t!901) tb!711))

(declare-fun result!711 () Bool)

(assert (=> tb!711 (= result!711 true)))

(assert (=> b!18379 t!901))

(declare-fun b_and!793 () Bool)

(assert (= b_and!791 (and (=> t!901 result!711) b_and!793)))

(declare-fun b_lambda!8653 () Bool)

(assert (=> (not b_lambda!8653) (not b!18381)))

(declare-fun t!903 () Bool)

(declare-fun tb!713 () Bool)

(assert (=> (and start!3173 (= P!5 P!5) t!903) tb!713))

(declare-fun result!713 () Bool)

(assert (=> tb!713 (= result!713 true)))

(assert (=> b!18381 t!903))

(declare-fun b_and!795 () Bool)

(assert (= b_and!793 (and (=> t!903 result!713) b_and!795)))

(declare-fun b_lambda!8655 () Bool)

(assert (=> (not b_lambda!8655) (not b!18380)))

(declare-fun t!905 () Bool)

(declare-fun tb!715 () Bool)

(assert (=> (and start!3173 (= P!5 P!5) t!905) tb!715))

(declare-fun result!715 () Bool)

(assert (=> tb!715 (= result!715 true)))

(assert (=> b!18380 t!905))

(declare-fun b_and!797 () Bool)

(assert (= b_and!795 (and (=> t!905 result!715) b_and!797)))

(declare-fun b_lambda!8657 () Bool)

(assert (=> (not b_lambda!8657) (not b!18385)))

(declare-fun t!907 () Bool)

(declare-fun tb!717 () Bool)

(assert (=> (and start!3173 (= P!5 P!5) t!907) tb!717))

(declare-fun result!717 () Bool)

(assert (=> tb!717 (= result!717 true)))

(assert (=> b!18385 t!907))

(declare-fun b_and!799 () Bool)

(assert (= b_and!797 (and (=> t!907 result!717) b_and!799)))

(declare-fun b_lambda!8659 () Bool)

(assert (=> (not b_lambda!8659) (not b!18368)))

(declare-fun t!909 () Bool)

(declare-fun tb!719 () Bool)

(assert (=> (and start!3173 (= P!5 P!5) t!909) tb!719))

(declare-fun result!719 () Bool)

(assert (=> tb!719 (= result!719 true)))

(assert (=> b!18368 t!909))

(declare-fun b_and!801 () Bool)

(assert (= b_and!799 (and (=> t!909 result!719) b_and!801)))

(declare-fun b_lambda!8661 () Bool)

(assert (=> (not b_lambda!8661) (not b!18386)))

(declare-fun t!911 () Bool)

(declare-fun tb!721 () Bool)

(assert (=> (and start!3173 (= P!5 P!5) t!911) tb!721))

(declare-fun result!721 () Bool)

(assert (=> tb!721 (= result!721 true)))

(assert (=> b!18386 t!911))

(declare-fun b_and!803 () Bool)

(assert (= b_and!801 (and (=> t!911 result!721) b_and!803)))

(declare-fun b_lambda!8663 () Bool)

(assert (=> (not b_lambda!8663) (not b!18378)))

(declare-fun t!913 () Bool)

(declare-fun tb!723 () Bool)

(assert (=> (and start!3173 (= P!5 P!5) t!913) tb!723))

(declare-fun result!723 () Bool)

(assert (=> tb!723 (= result!723 true)))

(assert (=> b!18378 t!913))

(declare-fun b_and!805 () Bool)

(assert (= b_and!803 (and (=> t!913 result!723) b_and!805)))

(declare-fun b_lambda!8665 () Bool)

(assert (=> (not b_lambda!8665) (not b!18377)))

(declare-fun t!915 () Bool)

(declare-fun tb!725 () Bool)

(assert (=> (and start!3173 (= P!5 P!5) t!915) tb!725))

(declare-fun result!725 () Bool)

(assert (=> tb!725 (= result!725 true)))

(assert (=> b!18377 t!915))

(declare-fun b_and!807 () Bool)

(assert (= b_and!805 (and (=> t!915 result!725) b_and!807)))

(declare-fun b_lambda!8667 () Bool)

(assert (=> (not b_lambda!8667) (not b!18372)))

(declare-fun t!917 () Bool)

(declare-fun tb!727 () Bool)

(assert (=> (and start!3173 (= P!5 P!5) t!917) tb!727))

(declare-fun result!727 () Bool)

(assert (=> tb!727 (= result!727 true)))

(assert (=> b!18372 t!917))

(declare-fun b_and!809 () Bool)

(assert (= b_and!807 (and (=> t!917 result!727) b_and!809)))

(declare-fun b_lambda!8669 () Bool)

(assert (=> (not b_lambda!8669) (not b!18371)))

(declare-fun t!919 () Bool)

(declare-fun tb!729 () Bool)

(assert (=> (and start!3173 (= P!5 P!5) t!919) tb!729))

(declare-fun result!729 () Bool)

(assert (=> tb!729 (= result!729 true)))

(assert (=> b!18371 t!919))

(declare-fun b_and!811 () Bool)

(assert (= b_and!809 (and (=> t!919 result!729) b_and!811)))

(declare-fun b_lambda!8671 () Bool)

(assert (=> (not b_lambda!8671) (not b!18384)))

(declare-fun t!921 () Bool)

(declare-fun tb!731 () Bool)

(assert (=> (and start!3173 (= P!5 P!5) t!921) tb!731))

(declare-fun result!731 () Bool)

(assert (=> tb!731 (= result!731 true)))

(assert (=> b!18384 t!921))

(declare-fun b_and!813 () Bool)

(assert (= b_and!811 (and (=> t!921 result!731) b_and!813)))

(declare-fun b_lambda!8673 () Bool)

(assert (=> (not b_lambda!8673) (not b!18369)))

(declare-fun t!923 () Bool)

(declare-fun tb!733 () Bool)

(assert (=> (and start!3173 (= P!5 P!5) t!923) tb!733))

(declare-fun result!733 () Bool)

(assert (=> tb!733 (= result!733 true)))

(assert (=> b!18369 t!923))

(declare-fun b_and!815 () Bool)

(assert (= b_and!813 (and (=> t!923 result!733) b_and!815)))

(declare-fun b_lambda!8675 () Bool)

(assert (=> (not b_lambda!8675) (not b!18375)))

(declare-fun t!925 () Bool)

(declare-fun tb!735 () Bool)

(assert (=> (and start!3173 (= P!5 P!5) t!925) tb!735))

(declare-fun result!735 () Bool)

(assert (=> tb!735 (= result!735 true)))

(assert (=> b!18375 t!925))

(declare-fun b_and!817 () Bool)

(assert (= b_and!815 (and (=> t!925 result!735) b_and!817)))

(declare-fun b_lambda!8677 () Bool)

(assert (=> (not b_lambda!8677) (not b!18382)))

(declare-fun t!927 () Bool)

(declare-fun tb!737 () Bool)

(assert (=> (and start!3173 (= P!5 P!5) t!927) tb!737))

(declare-fun result!737 () Bool)

(assert (=> tb!737 (= result!737 true)))

(assert (=> b!18382 t!927))

(declare-fun b_and!819 () Bool)

(assert (= b_and!817 (and (=> t!927 result!737) b_and!819)))

(declare-fun b_lambda!8679 () Bool)

(assert (=> (not b_lambda!8679) (not b!18373)))

(declare-fun t!929 () Bool)

(declare-fun tb!739 () Bool)

(assert (=> (and start!3173 (= P!5 P!5) t!929) tb!739))

(declare-fun result!739 () Bool)

(assert (=> tb!739 (= result!739 true)))

(assert (=> b!18373 t!929))

(declare-fun b_and!821 () Bool)

(assert (= b_and!819 (and (=> t!929 result!739) b_and!821)))

(declare-fun b_lambda!8681 () Bool)

(assert (=> (not b_lambda!8681) (not b!18374)))

(declare-fun t!931 () Bool)

(declare-fun tb!741 () Bool)

(assert (=> (and start!3173 (= P!5 P!5) t!931) tb!741))

(declare-fun result!741 () Bool)

(assert (=> tb!741 (= result!741 true)))

(assert (=> b!18374 t!931))

(declare-fun b_and!823 () Bool)

(assert (= b_and!821 (and (=> t!931 result!741) b_and!823)))

(declare-fun m!28823 () Bool)

(assert (=> start!3173 m!28823))

(declare-fun m!28825 () Bool)

(assert (=> b!18373 m!28825))

(assert (=> b!18373 m!28825))

(declare-fun m!28827 () Bool)

(assert (=> b!18373 m!28827))

(declare-fun m!28829 () Bool)

(assert (=> b!18378 m!28829))

(assert (=> b!18378 m!28829))

(declare-fun m!28831 () Bool)

(assert (=> b!18378 m!28831))

(declare-fun m!28833 () Bool)

(assert (=> b!18385 m!28833))

(assert (=> b!18385 m!28833))

(declare-fun m!28835 () Bool)

(assert (=> b!18385 m!28835))

(declare-fun m!28837 () Bool)

(assert (=> b!18374 m!28837))

(assert (=> b!18374 m!28837))

(declare-fun m!28839 () Bool)

(assert (=> b!18374 m!28839))

(declare-fun m!28841 () Bool)

(assert (=> b!18369 m!28841))

(assert (=> b!18369 m!28841))

(declare-fun m!28843 () Bool)

(assert (=> b!18369 m!28843))

(declare-fun m!28845 () Bool)

(assert (=> b!18379 m!28845))

(assert (=> b!18379 m!28845))

(declare-fun m!28847 () Bool)

(assert (=> b!18379 m!28847))

(declare-fun m!28849 () Bool)

(assert (=> b!18383 m!28849))

(assert (=> b!18383 m!28849))

(declare-fun m!28851 () Bool)

(assert (=> b!18383 m!28851))

(declare-fun m!28853 () Bool)

(assert (=> b!18386 m!28853))

(assert (=> b!18386 m!28853))

(declare-fun m!28855 () Bool)

(assert (=> b!18386 m!28855))

(declare-fun m!28857 () Bool)

(assert (=> b!18384 m!28857))

(assert (=> b!18384 m!28857))

(declare-fun m!28859 () Bool)

(assert (=> b!18384 m!28859))

(declare-fun m!28861 () Bool)

(assert (=> b!18381 m!28861))

(assert (=> b!18381 m!28861))

(declare-fun m!28863 () Bool)

(assert (=> b!18381 m!28863))

(declare-fun m!28865 () Bool)

(assert (=> b!18376 m!28865))

(assert (=> b!18376 m!28865))

(declare-fun m!28867 () Bool)

(assert (=> b!18376 m!28867))

(declare-fun m!28869 () Bool)

(assert (=> b!18380 m!28869))

(assert (=> b!18380 m!28869))

(declare-fun m!28871 () Bool)

(assert (=> b!18380 m!28871))

(declare-fun m!28873 () Bool)

(assert (=> b!18377 m!28873))

(assert (=> b!18377 m!28873))

(declare-fun m!28875 () Bool)

(assert (=> b!18377 m!28875))

(declare-fun m!28877 () Bool)

(assert (=> b!18382 m!28877))

(assert (=> b!18382 m!28877))

(declare-fun m!28879 () Bool)

(assert (=> b!18382 m!28879))

(declare-fun m!28881 () Bool)

(assert (=> b!18372 m!28881))

(assert (=> b!18372 m!28881))

(declare-fun m!28883 () Bool)

(assert (=> b!18372 m!28883))

(declare-fun m!28885 () Bool)

(assert (=> b!18371 m!28885))

(assert (=> b!18371 m!28885))

(declare-fun m!28887 () Bool)

(assert (=> b!18371 m!28887))

(declare-fun m!28889 () Bool)

(assert (=> b!18368 m!28889))

(assert (=> b!18368 m!28889))

(declare-fun m!28891 () Bool)

(assert (=> b!18368 m!28891))

(declare-fun m!28893 () Bool)

(assert (=> b!18375 m!28893))

(assert (=> b!18375 m!28893))

(declare-fun m!28895 () Bool)

(assert (=> b!18375 m!28895))

(push 1)

(assert (not b_lambda!8667))

(assert (not b_lambda!8649))

(assert (not b_lambda!8659))

(assert (not b_lambda!8647))

(assert (not b_lambda!8681))

(assert (not b_lambda!8679))

(assert (not b_next!81))

(assert (not b_lambda!8671))

(assert b_and!823)

(assert (not b_lambda!8663))

(assert (not b_lambda!8661))

(assert (not b_lambda!8651))

(assert (not b_lambda!8653))

(assert (not b_lambda!8677))

(assert (not b_lambda!8655))

(assert (not start!3173))

(assert (not b_lambda!8657))

(assert (not b_lambda!8675))

(assert (not b_lambda!8669))

(assert (not b_lambda!8665))

(assert (not b_lambda!8673))

(check-sat)

(pop 1)

(push 1)

(assert b_and!823)

(assert (not b_next!81))

(check-sat)

(pop 1)

